# Solution for model GasLib-40
# Objective value = 6.7817899298263967e+01
loadshed[innode_1] 0
loadshed[innode_2] 0
loadshed[innode_3] 0
loadshed[innode_4] 0
loadshed[innode_5] 0
loadshed[innode_6] 0
loadshed[innode_7] 0
loadshed[innode_8] 0
loadshed[source_1] -8.0794984681457516e-02
loadshed[source_2] 2.5449030248335558e-01
loadshed[source_3] 2.5528678186629761e-01
loadshed[sink_1] 1
loadshed[sink_2] 0
loadshed[sink_3] 0
loadshed[sink_4] 0
loadshed[sink_5] 0
loadshed[sink_6] 0
loadshed[sink_7] 0
loadshed[sink_8] 0
loadshed[sink_9] 0
loadshed[sink_10] 0
loadshed[sink_11] 0
loadshed[sink_12] 1
loadshed[sink_13] 0
loadshed[sink_14] 0
loadshed[sink_15] 0
loadshed[sink_16] 0
loadshed[sink_17] 0
loadshed[sink_18] 2.4489495638775671e-02
loadshed[sink_19] 0
loadshed[sink_20] 0
loadshed[sink_21] 1
loadshed[sink_22] 1.7862377086285713e-01
loadshed[sink_23] 0
loadshed[sink_24] 9.4371369695909380e-01
loadshed[sink_25] 0
loadshed[sink_26] 0
loadshed[sink_27] 0
loadshed[sink_28] 0
loadshed[sink_29] 0
flow[source_1,sink_3] 1.7086317934912068e+02
flow[innode_1,sink_16] 1.6354166666666970e+01
flow[innode_6,sink_13] -3.2527528528738117e+00
flow[sink_13,sink_14] -1.9606919519540480e+01
flow[sink_14,sink_10] -3.5961086186207183e+01
flow[sink_25,sink_26] 3.2708333333335915e+01
flow[sink_26,sink_9] 1.6354166666669244e+01
flow[sink_9,sink_18] 0
flow[sink_26,sink_4] 0
flow[sink_4,sink_20] -6.3031563066023864e+01
flow[sink_18,sink_6] -1.5953661373407524e+01
flow[sink_25,innode_8] -1.3815484601578430e+02
flow[sink_6,sink_7] -4.5740751787421218e+01
flow[sink_6,sink_22] 1.3432923747347026e+01
flow[sink_7,sink_24] 9.2051558098148911e-01
flow[sink_22,sink_1] 0
flow[sink_24,sink_21] 0
flow[sink_21,sink_12] 0
flow[sink_7,sink_5] -6.3015434035069376e+01
flow[sink_5,sink_17] -7.9369600701736047e+01
flow[sink_17,sink_4] -4.6677396399357193e+01
flow[sink_17,sink_8] -49.0463709690455
flow[sink_3,sink_23] 16.3541666666697
flow[sink_8,sink_20] -6.5400537635712169e+01
flow[sink_25,sink_20] 1.4478626736840266e+02
flow[sink_25,sink_15] -5.2441168499747462e+01
flow[sink_15,sink_29] -8.5149501833098384e+01
flow[sink_29,sink_28] 1.6354166666667879e+01
flow[sink_29,sink_2] 0
flow[sink_2,sink_15] -1.6354166666684250e+01
flow[sink_29,innode_7] -1.1785783516643340e+02
flow[innode_4,sink_19] 4.5577096237615933e+01
flow[sink_19,innode_3] 4.1491151174506740e+01
flow[innode_4,innode_5] 7.2154823281923882e+01
flow[sink_27,innode_5] -7.2154823281923882e+01
flow[sink_27,sink_19] 5.5800656615257253e+01
flow[sink_10,sink_11] 3.2708333333333641e+01
flow[sink_10,innode_2] -4.3532435011700784e+01
flow[sink_10,innode_3] -4.1491151174506740e+01
flow[innode_6,sink_25] 3.2527528528738117e+00
flow[sink_11,innode_1] 1.6354166666666970e+01
flow[sink_19,innode_2] 4.3532435011700784e+01
flow[source_3,innode_4] 1.1773191951953982e+02
flow[source_2,innode_7] 1.1785783516643340e+02
flow[sink_3,innode_8] 1.3815484601578430e+02
pressure[innode_1] 7.6714235407494087e+01
pressure[innode_2] 7.9166805700311073e+01
pressure[innode_3] 7.9074928244398308e+01
pressure[innode_4] 81.01325
pressure[innode_5] 8.0963618107811072e+01
pressure[innode_6] 75.1120076975925
pressure[innode_7] 81.01325
pressure[innode_8] 8.0442119663536246e+01
pressure[source_1] 81.01325
pressure[source_2] 81.01325
pressure[source_3] 81.01325
pressure[sink_1] 1.0132500000000002e+00
pressure[sink_2] 7.5313005714869448e+01
pressure[sink_3] 8.0442119663536246e+01
pressure[sink_4] 3.5971115714070343e+01
pressure[sink_5] 2.8274797985316312e+01
pressure[sink_6] 1.4392602589622208e+00
pressure[sink_7] 2.0671717515530030e+00
pressure[sink_8] 3.6037906533644446e+01
pressure[sink_9] 7.1829539905522182e+01
pressure[sink_10] 7.6865936715097632e+01
pressure[sink_11] 7.6714235407494087e+01
pressure[sink_12] 1.01325
pressure[sink_13] 75.1299395804849
pressure[sink_14] 7.5165027833105370e+01
pressure[sink_15] 7.5366398464635893e+01
pressure[sink_16] 75.6925855726764
pressure[sink_17] 3.4187259537643847e+01
pressure[sink_18] 1.01325
pressure[sink_19] 7.9166805700311073e+01
pressure[sink_20] 4.0595404261366546e+01
pressure[sink_21] 1.01325
pressure[sink_22] 1.0132500000000002e+00
pressure[sink_23] 8.0277401651876460e+01
pressure[sink_24] 1.01325
pressure[sink_25] 75.1120076975925
pressure[sink_26] 72.8083789894646
pressure[sink_27] 80.3648664023486
pressure[sink_28] 7.7565732343219537e+01
pressure[sink_29] 7.7861014616836712e+01
interdiction[source_1,sink_3] 0
interdiction[innode_1,sink_16] 0
interdiction[innode_6,sink_13] 0
interdiction[sink_13,sink_14] 0
interdiction[sink_14,sink_10] 0
interdiction[sink_25,sink_26] 0
interdiction[sink_26,sink_9] 0
interdiction[sink_9,sink_18] 1
interdiction[sink_26,sink_4] 1
interdiction[sink_4,sink_20] 0
interdiction[sink_18,sink_6] 0
interdiction[sink_25,innode_8] 0
interdiction[sink_6,sink_7] 0
interdiction[sink_6,sink_22] 0
interdiction[sink_7,sink_24] 0
interdiction[sink_22,sink_1] 0
interdiction[sink_24,sink_21] 0
interdiction[sink_21,sink_12] 0
interdiction[sink_7,sink_5] 0
interdiction[sink_5,sink_17] 0
interdiction[sink_17,sink_4] 0
interdiction[sink_17,sink_8] 0
interdiction[sink_3,sink_23] 0
interdiction[sink_8,sink_20] 0
interdiction[sink_25,sink_20] 0
interdiction[sink_25,sink_15] 0
interdiction[sink_15,sink_29] 0
interdiction[sink_29,sink_28] 0
interdiction[sink_29,sink_2] 1
interdiction[sink_2,sink_15] 0
interdiction[sink_29,innode_7] 0
interdiction[innode_4,sink_19] 0
interdiction[sink_19,innode_3] 0
interdiction[innode_4,innode_5] 0
interdiction[sink_27,innode_5] 0
interdiction[sink_27,sink_19] 0
interdiction[sink_10,sink_11] 0
interdiction[sink_10,innode_2] 0
interdiction[sink_10,innode_3] 0
interdiction[innode_6,sink_25] 0
interdiction[sink_11,innode_1] 0
interdiction[sink_19,innode_2] 0
interdiction[source_3,innode_4] 0
interdiction[source_2,innode_7] 0
interdiction[sink_3,innode_8] 0
WCcheckFlow[source_1,sink_3] 39
WCcheckFlow[innode_1,sink_16] 1
WCcheckFlow[innode_6,sink_13] 13
WCcheckFlow[sink_13,sink_14] 12
WCcheckFlow[sink_14,sink_10] 11
WCcheckFlow[sink_25,sink_26] 2
WCcheckFlow[sink_26,sink_9] 1
WCcheckFlow[sink_9,sink_18] 0
WCcheckFlow[sink_26,sink_4] 0
WCcheckFlow[sink_4,sink_20] -12
WCcheckFlow[sink_18,sink_6] -1
WCcheckFlow[sink_25,innode_8] -36
WCcheckFlow[sink_6,sink_7] -4
WCcheckFlow[sink_6,sink_22] 2
WCcheckFlow[sink_7,sink_24] 3
WCcheckFlow[sink_22,sink_1] 1
WCcheckFlow[sink_24,sink_21] 2
WCcheckFlow[sink_21,sink_12] 1
WCcheckFlow[sink_7,sink_5] -8
WCcheckFlow[sink_5,sink_17] -9
WCcheckFlow[sink_17,sink_4] -11
WCcheckFlow[sink_17,sink_8] 1
WCcheckFlow[sink_3,sink_23] 1
WCcheckFlow[sink_8,sink_20] 0
WCcheckFlow[sink_25,sink_20] 13
WCcheckFlow[sink_25,sink_15] 6
WCcheckFlow[sink_15,sink_29] 4
WCcheckFlow[sink_29,sink_28] 1
WCcheckFlow[sink_29,sink_2] 0
WCcheckFlow[sink_2,sink_15] -1
WCcheckFlow[sink_29,innode_7] 2
WCcheckFlow[innode_4,sink_19] -4
WCcheckFlow[sink_19,innode_3] -5
WCcheckFlow[innode_4,innode_5] 2
WCcheckFlow[sink_27,innode_5] -1
WCcheckFlow[sink_27,sink_19] 0
WCcheckFlow[sink_10,sink_11] 3
WCcheckFlow[sink_10,innode_2] 1
WCcheckFlow[sink_10,innode_3] 6
WCcheckFlow[innode_6,sink_25] -14
WCcheckFlow[sink_11,innode_1] 2
WCcheckFlow[sink_19,innode_2] 0
WCcheckFlow[source_3,innode_4] -1
WCcheckFlow[source_2,innode_7] -1
WCcheckFlow[sink_3,innode_8] 37
